Problem:    
Rows:       60
Columns:    46 (20 integer, 20 binary)
Non-zeros:  140
Status:     INTEGER OPTIMAL
Objective:  obj = 2569.696435 (MINimum)

   No.   Row name        Activity     Lower bound   Upper bound
------ ------------    ------------- ------------- -------------
     1 c1                          0                           0 
     2 c2                          0                           0 
     3 c3                          0                           0 
     4 c4                          0                           0 
     5 c5                          0                           0 
     6 c6                          0                           0 
     7 c7                      -0.25                           0 
     8 c8                          0                           0 
     9 c9                          0                           0 
    10 c10                         0                           0 
    11 c11                         0                           0 
    12 c12                 -0.207474                           0 
    13 c13                  -0.27664                           0 
    14 c14                  -0.27664                           0 
    15 c15                  -0.27664                           0 
    16 c16                  -0.27664                           0 
    17 c17                  -0.27664                           0 
    18 c18                  -0.27664                           0 
    19 c19                  -0.27664                           0 
    20 c20                    -0.279                           0 
    21 c21                     -0.25                           0 
    22 c22                         0                           0 
    23 c23                         0                           0 
    24 c24                         0                           0 
    25 c25                         0                           0 
    26 c26                         0                           0 
    27 c27                         0                           0 
    28 c28                         0                           0 
    29 c29                         0                           0 
    30 c30                         0                           0 
    31 c31                         0                           0 
    32 c32                -0.0425259                           0 
    33 c33                  -0.72336                           0 
    34 c34                  -0.72336                           0 
    35 c35                  -0.72336                           0 
    36 c36                  -0.72336                           0 
    37 c37                  -0.72336                           0 
    38 c38                  -0.72336                           0 
    39 c39                  -0.72336                           0 
    40 c40                    -0.721                           0 
    41 c41                         0             0             = 
    42 c42                         0             0             = 
    43 c43                         0             0             = 
    44 c44                         0             0             = 
    45 c45                         0             0             = 
    46 c46                         0             0             = 
    47 c47                         0             0             = 
    48 c48                         0             0             = 
    49 c49                         0             0             = 
    50 c50                         0             0             = 
    51 c51                         0             0             = 
    52 c52                         1             1             = 
    53 c53                         1             1             = 
    54 c54                         1             1             = 
    55 c55                         1             1             = 
    56 c56                         1             1             = 
    57 c57                         1             1             = 
    58 c58                         1                           1 
    59 c59                         1                           1 
    60 c60                         1                           1 

   No. Column name       Activity     Lower bound   Upper bound
------ ------------    ------------- ------------- -------------
     1 y_ch1_1      *              1             0             1 
     2 y_ch1_2      *              0             0             1 
     3 y_ch1_3      *              0             0             1 
     4 y_ch1_4      *              0             0             1 
     5 y_ch2_1      *              0             0             1 
     6 y_ch2_2      *              0             0             1 
     7 y_ch2_3      *              1             0             1 
     8 y_ch2_4      *              0             0             1 
     9 y_ch3_1      *              0             0             1 
    10 y_ch3_2      *              0             0             1 
    11 y_ch3_3      *              0             0             1 
    12 y_ch3_4      *              1             0             1 
    13 y_sp1        *              1             0             1 
    14 y_sscp       *              1             0             1 
    15 y_ssgv2      *              1             0             1 
    16 y_sshsb      *              1             0             1 
    17 y_sspfa      *              1             0             1 
    18 y_ssser      *              1             0             1 
    19 y_ssfir      *              1             0             1 
    20 y_sp2        *              1             0             1 
    21 u_ch1_1                     0             0          1000 
    22 u_ch1_2                     0             0          1000 
    23 u_ch1_3                     0             0          1000 
    24 u_ch1_4                     0             0          1000 
    25 u_ch2_1                     0             0          1000 
    26 u_ch2_2                     0             0          1000 
    27 u_ch2_3                  0.75             0          1000 
    28 u_ch2_4                     0             0          1000 
    29 u_ch3_1                     0             0          1000 
    30 u_ch3_2                     0             0          1000 
    31 u_ch3_3                     0             0          1000 
    32 u_ch3_4              0.957474             0          1000 
    33 u_sp1                 0.27664             0          1000 
    34 u_sscp                0.27664             0          1000 
    35 u_ssgv2               0.27664             0          1000 
    36 u_sshsb               0.27664             0          1000 
    37 u_sspfa               0.27664             0          1000 
    38 u_ssser               0.27664             0          1000 
    39 u_ssfir               0.27664             0          1000 
    40 u_sp2                   0.279             0          1000 
    41 y_ch1_ret                   1             0               
    42 u_ch1_ret                   1             0               
    43 y_ch2_ret                   1             0               
    44 u_ch2_ret                   1             0               
    45 y_ch3_ret                   1             0               
    46 u_ch3_ret                   1             0               

Integer feasibility conditions:

KKT.PE: max.abs.err = 0.00e+00 on row 0
        max.rel.err = 0.00e+00 on row 0
        High quality

KKT.PB: max.abs.err = 5.68e-14 on row 48
        max.rel.err = 5.68e-14 on row 48
        High quality

End of output
